100
36
0	-1	-1	99999
1	15	19	0
2	1	49	1
3	87	25	14
4	69	65	15
5	93	91	11
6	33	31	18
7	71	61	2
8	29	9	22
9	93	7	7
10	55	47	18
11	23	13	23
12	19	47	12
13	57	63	21
14	5	95	2
15	65	43	14
16	69	1	9
17	3	25	10
18	19	91	4
19	21	81	19
20	67	91	2
21	41	23	20
22	19	75	15
23	15	79	11
24	79	47	6
25	19	65	13
26	27	49	19
27	29	17	13
28	25	65	8
29	59	51	15
30	27	95	18
31	21	91	11
32	61	83	21
33	15	83	12
34	31	87	2
35	71	41	23
36	91	21	11
